10
1 0 23
2 0 29
2 1 14
3 0 1
3 1 36
3 2 9
4 0 16
4 1 19
4 2 1
4 3 37
5 0 29
5 1 33
5 2 27
5 3 7
5 4 1
6 0 16
6 1 10
6 2 11
6 3 1
6 4 12
6 5 26
7 0 21
7 1 12
7 2 32
7 3 20
7 4 20
7 5 29
7 6 25
8 0 19
8 1 4
8 2 32
8 3 11
8 4 9
8 5 39
8 6 1
8 7 7
9 0 25
9 1 10
9 2 20
9 3 3
9 4 1
9 5 34
9 6 13
9 7 25
9 8 33
